SCIP version 5.0.0 [precision: 8 byte] [memory: block] [mode: optimized] [LP solver: NONE] [GitHash: 3bbd232]
Copyright (C) 2002-2017 Konrad-Zuse-Zentrum fuer Informationstechnik Berlin (ZIB)

External codes: 
  Readline EditLine w  GNU library for command line editing (gnu.org/s/readline)
  CppAD 20160000.1     Algorithmic Differentiation of C++ algorithms developed by B. Bell (www.coin-or.org/CppAD)
  ZLIB 1.2.5           General purpose compression library by J. Gailly and M. Adler (zlib.net)
  GMP 6.1.2            GNU Multiple Precision Arithmetic Library developed by T. Granlund (gmplib.org)

user parameter file <scip.set> not found - using default parameters

read problem <../../Split_data/output/statG/5/3_sample_statG.logreg>
============

File name	:	../../Split_data/output/statG/5/3_sample_statG.logreg
Problem name 	:	3_sample_statG
Number of data	:	800
Number of var	:	61
The given data has linear dependence
13 sets of column vector are linearly dependent:

[dim=1] time: 0.041771
[dim=2] time: 0.083945
[dim=3] time: 0.124684
[dim=4] time: 0.175632
[dim=5] time: 0.216216
[dim=6] time: 0.258088
[dim=7] time: 0.299697
[dim=8] time: 0.340096
[dim=9] time: 0.390649
[dim=10] time: 0.432205
[dim=11] time: 0.473946
[dim=12] time: 0.514487
[dim=13] time: 0.56405
[dim=14] time: 0.607122
[dim=15] time: 0.653908
[dim=16] time: 0.69912
[dim=17] time: 0.747669
[dim=18] time: 0.793996
[dim=19] time: 0.841831
[dim=20] time: 0.895512
[dim=21] time: 0.941338
[dim=22] time: 0.977888
[dim=23] time: 1.01393
[dim=24] time: 1.05116
[dim=25] time: 1.08525
[dim=26] Time of forward = 1.11755sec.
AIC: 770.957
k: 25

[dim=48] time: 0.110157
[dim=47] time: 0.190504
[dim=46] time: 0.261241
[dim=45] time: 0.338591
[dim=44] time: 0.400183
[dim=43] time: 0.470692
[dim=42] time: 0.539022
[dim=41] time: 0.602933
[dim=40] time: 0.662953
[dim=39] time: 0.713091
[dim=38] time: 0.769285
[dim=37] time: 0.813211
[dim=36] time: 0.864027
[dim=35] time: 0.909696
[dim=34] time: 0.943003
[dim=33] time: 0.989446
[dim=32] time: 1.03392
[dim=31] time: 1.07113
[dim=30] time: 1.1036
[dim=29] time: 1.14529
[dim=28] time: 1.18641
[dim=27] time: 1.23327
[dim=26] time: 1.27299
[dim=25] time: 1.30019
[dim=24] time: 1.335
[dim=23] Time of backward = 1.36278sec.
AIC: 774.796
k: 24
